LibMLKEM/why3-cvc5/mlkem.adb_1947_17_precondition_1.smt2
;; produced by cvc5.drv ;;
(set-logic ALL)
(set-info :smt-lib-version 2.6)
;;; generated by SMT-LIB2 driver
;;; SMT-LIB2 driver: bit-vectors, common part
;;; SMT-LIB2: integer arithmetic
;; "pow2"
(declare-fun pow2 (Int) Int)

(declare-const two_power_size_minus_one Int)

;; "two_power_size_minus_one_val"
(assert (= two_power_size_minus_one (pow2 (- 8 1))))

;; "min"
(define-fun min ((x Int) (y Int)) Int
  (ite (<= x y) x y))

;; "max"
(define-fun max ((x Int) (y Int)) Int
  (ite (<= x y) y x))

;; "Min_r"
(assert (forall ((x Int) (y Int)) (=> (<= y x) (= (min x y) y))))

;; "Max_l"
(assert (forall ((x Int) (y Int)) (=> (<= y x) (= (max x y) x))))

;; "Min_comm"
(assert (forall ((x Int) (y Int)) (= (min x y) (min y x))))

;; "Max_comm"
(assert (forall ((x Int) (y Int)) (= (max x y) (max y x))))

;; "Min_assoc"
(assert
  (forall ((x Int) (y Int) (z Int)) (= (min (min x y) z) (min x (min y z)))))

;; "Max_assoc"
(assert
  (forall ((x Int) (y Int) (z Int)) (= (max (max x y) z) (max x (max y z)))))

(declare-sort byte 0)

;; "to_rep"
(declare-fun to_rep (byte) (_ BitVec 8))

;; "of_rep"
(declare-fun of_rep ((_ BitVec 8)) byte)

;; "inversion_axiom"
(assert
  (forall ((x byte)) (! (= (of_rep (to_rep x)) x) :pattern ((to_rep x)) )))

;; "range_axiom"
(assert true)

;; "coerce_axiom"
(assert
  (forall ((x (_ BitVec 8)))
    (! (= (to_rep (of_rep x)) x) :pattern ((to_rep (of_rep x))) )))

(declare-sort map1 0)

;; "has_bounds"
(declare-fun has_bounds (map1
  Int
  Int) Bool)

;; "ek_valid_for_encaps"
(declare-fun ek_valid_for_encaps (map1) Bool)

;; "dk_valid_for_decaps"
(declare-fun dk_valid_for_decaps (map1) Bool)

(declare-datatypes ((us_split_fields 0))
  (((us_split_fieldsqtmk
    (rec__mlkem__mlkem_key__ek map1)(rec__mlkem__mlkem_key__dk map1)))))

(declare-datatypes ((us_rep 0))
  (((us_repqtmk (us_split_fields1 us_split_fields)))))

(declare-const key_pair us_rep)

(declare-const random_m map1)

;; "mlkem_decaps"
(declare-fun mlkem_decaps (map1
  map1) map1)

;; "mlkem_decaps__function_guard"
(declare-fun mlkem_decaps__function_guard (map1
  map1
  map1) Bool)

(declare-sort tinteger_32B 0)

;; "tinteger_32B'int"
(declare-fun tinteger_32Bqtint (tinteger_32B) Int)

;; "tinteger_32B'axiom"
(assert
  (forall ((i tinteger_32B))
    (and
      (<= (- 2147483648) (tinteger_32Bqtint i))
      (<= (tinteger_32Bqtint i) 2147483647))))

;; "in_range"
(define-fun in_range ((x Int)) Bool
  (and (<= (- 2147483648) x) (<= x 2147483647)))

;; "to_rep"
(define-fun to_rep1 ((x tinteger_32B)) Int
  (tinteger_32Bqtint x))

;; "of_rep"
(declare-fun of_rep1 (Int) tinteger_32B)

;; "inversion_axiom"
(assert
  (forall ((x tinteger_32B))
    (! (= (of_rep1 (to_rep1 x)) x) :pattern ((to_rep1 x)) )))

;; "range_axiom"
(assert
  (forall ((x tinteger_32B))
    (! (in_range (to_rep1 x)) :pattern ((to_rep1 x)) )))

;; "coerce_axiom"
(assert
  (forall ((x Int))
    (! (=> (in_range x) (= (to_rep1 (of_rep1 x)) x)) :pattern ((to_rep1
                                                                 (of_rep1 x))) )))

(declare-datatypes ((t 0))
  (((tqtmk (rec__first tinteger_32B)(rec__last tinteger_32B)))))

;; "mk"
(declare-fun mk (Int
  Int) t)

;; "mk_def"
(assert
  (forall ((f Int) (l Int))
    (! (=>
         (in_range f)
         (=>
           (in_range l)
           (and
             (= (to_rep1 (rec__first (mk f l))) f)
             (= (to_rep1 (rec__last (mk f l))) l)))) :pattern ((mk f l)) )))

(declare-datatypes ((us_t 0))
  (((us_tqtmk (elts map1)(rt t)))))

;; "of_array"
(define-fun of_array ((a map1) (f Int) (l Int)) us_t
  (us_tqtmk a (mk f l)))

;; "first"
(define-fun first ((a us_t)) Int
  (to_rep1 (rec__first (rt a))))

;; "last"
(define-fun last ((a us_t)) Int
  (to_rep1 (rec__last (rt a))))

;; "length"
(define-fun length ((a us_t)) Int
  (ite (<= (first a) (last a)) (+ (- (last a) (first a)) 1) 0))

;; "dynamic_invariant"
(define-fun dynamic_invariant ((temp___expr_819 us_rep) (temp___is_init_815 Bool) (temp___skip_constant_816 Bool) (temp___do_toplevel_817 Bool) (temp___do_typ_inv_818 Bool)) Bool
  (and
    (has_bounds
      (rec__mlkem__mlkem_key__ek (us_split_fields1 temp___expr_819))
      0
      1183)
    (has_bounds
      (rec__mlkem__mlkem_key__dk (us_split_fields1 temp___expr_819))
      0
      2399)))

;; "ek_valid_for_encaps__post_axiom"
(assert true)

;; "dk_valid_for_decaps__post_axiom"
(assert true)

;; Goal "def'vc"
;; File "mlkem.ads", line 107, characters 0-0
(assert
  (not
  (forall ((key map1) (key_tick map1) (c map1))
    (=>
      (dynamic_invariant key_pair true false true true)
      (=>
        (has_bounds random_m 0 31)
        (=>
          (has_bounds key 0 31)
          (=>
            (has_bounds key_tick 0 31)
            (=>
              (has_bounds c 0 1087)
              (forall ((spark__branch Bool))
                (=>
                  (= spark__branch (and (dk_valid_for_decaps
                                          (rec__mlkem__mlkem_key__dk
                                            (us_split_fields1 key_pair))) 
                  (ek_valid_for_encaps
                    (rec__mlkem__mlkem_key__ek (us_split_fields1 key_pair)))))
                  (=>
                    (= spark__branch true)
                    (forall ((key1 map1) (c1 map1))
                      (=>
                        (and (has_bounds key1 0 31) (has_bounds c1 0 1087))
                        (let ((o (rec__mlkem__mlkem_key__dk
                                   (us_split_fields1 key_pair))))
                          (let ((o1 (mlkem_decaps c1 o)))
                            (=>
                              (and
                                (mlkem_decaps__function_guard o1 c1 o)
                                (has_bounds o1 0 31))
                              (forall ((key_tick1 map1))
                                (=>
                                  (= key_tick1 o1)
                                  (let ((o2 (of_array key_tick1 0 31)))
                                    (let ((o3 (of_array key1 0 31)))
                                      (and
                                        (and
                                          (and
                                            (and
                                              (= (first o3) (first o2))
                                              (= (last o3) (last o2)))
                                            (<= 1 (length o3)))
                                          (<= 1 (length o2)))
                                        (= (length o3) (length o2)))))))))))))))))))))))

(check-sat)
